p tw 680 10201 3 
1 8 
1 9 
2 4 
2 7 
2 10 
3 8 
3 10 
4 7 
4 9 
5 9 
5 10 
5 15 
6 7 
6 8 
6 16 
11 18 
11 19 
11 21 
12 17 
12 20 
12 22 
13 18 
13 20 
13 23 
14 17 
14 19 
14 24 
15 19 
15 20 
16 17 
16 18 
21 28 
21 29 
22 27 
22 30 
23 28 
23 30 
24 27 
24 29 
25 29 
25 30 
25 35 
26 27 
26 28 
26 36 
31 38 
31 39 
31 41 
32 37 
32 40 
32 42 
33 38 
33 40 
33 43 
34 37 
34 39 
34 44 
35 39 
35 40 
36 37 
36 38 
41 48 
41 49 
42 47 
42 50 
43 48 
43 50 
44 47 
44 49 
45 49 
45 50 
45 55 
46 47 
46 48 
46 56 
51 58 
51 59 
51 61 
52 57 
52 60 
52 62 
53 58 
53 60 
53 63 
54 57 
54 59 
54 64 
55 59 
55 60 
56 57 
56 58 
61 68 
61 69 
62 67 
62 70 
63 68 
63 70 
64 67 
64 69 
65 69 
65 70 
65 75 
66 67 
66 68 
66 76 
71 78 
71 79 
71 81 
72 77 
72 80 
72 82 
73 78 
73 80 
73 83 
74 77 
74 79 
74 84 
75 79 
75 80 
76 77 
76 78 
81 88 
81 89 
82 87 
82 90 
83 88 
83 90 
84 87 
84 89 
85 89 
85 90 
85 95 
86 87 
86 88 
86 96 
91 98 
91 99 
91 101 
92 97 
92 100 
92 102 
93 98 
93 100 
93 103 
94 97 
94 99 
94 104 
95 99 
95 100 
96 97 
96 98 
101 108 
101 109 
102 107 
102 110 
103 108 
103 110 
104 107 
104 109 
105 109 
105 110 
105 115 
106 107 
106 108 
106 116 
111 118 
111 119 
111 121 
112 117 
112 120 
112 122 
113 118 
113 120 
113 123 
114 117 
114 119 
114 124 
115 119 
115 120 
116 117 
116 118 
121 128 
121 129 
122 127 
122 130 
123 128 
123 130 
124 127 
124 129 
125 129 
125 130 
125 135 
126 127 
126 128 
126 136 
131 138 
131 139 
131 141 
132 137 
132 140 
132 142 
133 138 
133 140 
133 143 
134 137 
134 139 
134 144 
135 139 
135 140 
136 137 
136 138 
141 148 
141 149 
142 147 
142 150 
143 148 
143 150 
144 147 
144 149 
145 149 
145 150 
145 155 
146 147 
146 148 
146 156 
151 158 
151 159 
151 161 
152 157 
152 160 
152 162 
153 158 
153 160 
153 163 
154 157 
154 159 
154 164 
155 159 
155 160 
156 157 
156 158 
161 168 
161 169 
162 167 
162 170 
163 168 
163 170 
164 167 
164 169 
165 169 
165 170 
165 175 
166 167 
166 168 
166 176 
171 178 
171 179 
171 181 
172 177 
172 180 
172 182 
173 178 
173 180 
173 183 
174 177 
174 179 
174 184 
175 179 
175 180 
176 177 
176 178 
181 188 
181 189 
182 187 
182 190 
183 188 
183 190 
184 187 
184 189 
185 189 
185 190 
185 195 
186 187 
186 188 
186 196 
191 198 
191 199 
191 201 
192 197 
192 200 
192 202 
193 198 
193 200 
193 203 
194 197 
194 199 
194 204 
195 199 
195 200 
196 197 
196 198 
201 208 
201 209 
202 207 
202 210 
203 208 
203 210 
204 207 
204 209 
205 209 
205 210 
205 215 
206 207 
206 208 
206 216 
211 218 
211 219 
211 221 
212 217 
212 220 
212 222 
213 218 
213 220 
213 223 
214 217 
214 219 
214 224 
215 219 
215 220 
216 217 
216 218 
221 228 
221 229 
222 227 
222 230 
223 228 
223 230 
224 227 
224 229 
225 229 
225 230 
225 235 
226 227 
226 228 
226 236 
231 238 
231 239 
231 241 
232 237 
232 240 
232 242 
233 238 
233 240 
233 243 
234 237 
234 239 
234 244 
235 239 
235 240 
236 237 
236 238 
241 248 
241 249 
242 247 
242 250 
243 248 
243 250 
244 247 
244 249 
245 249 
245 250 
245 255 
246 247 
246 248 
246 256 
251 258 
251 259 
251 261 
252 257 
252 260 
252 262 
253 258 
253 260 
253 263 
254 257 
254 259 
254 264 
255 259 
255 260 
256 257 
256 258 
261 268 
261 269 
262 267 
262 270 
263 268 
263 270 
264 267 
264 269 
265 269 
265 270 
265 275 
266 267 
266 268 
266 276 
271 278 
271 279 
271 281 
272 277 
272 280 
272 282 
273 278 
273 280 
273 283 
274 277 
274 279 
274 284 
275 279 
275 280 
276 277 
276 278 
281 288 
281 289 
282 287 
282 290 
283 288 
283 290 
284 287 
284 289 
285 289 
285 290 
285 295 
286 287 
286 288 
286 296 
291 298 
291 299 
291 301 
292 297 
292 300 
292 302 
293 298 
293 300 
293 303 
294 297 
294 299 
294 304 
295 299 
295 300 
296 297 
296 298 
301 308 
301 309 
302 307 
302 310 
303 308 
303 310 
304 307 
304 309 
305 309 
305 310 
305 315 
306 307 
306 308 
306 316 
311 318 
311 319 
311 321 
312 317 
312 320 
312 322 
313 318 
313 320 
313 323 
314 317 
314 319 
314 324 
315 319 
315 320 
316 317 
316 318 
321 328 
321 329 
322 327 
322 330 
323 328 
323 330 
324 327 
324 329 
325 329 
325 330 
325 335 
326 327 
326 328 
326 336 
331 338 
331 339 
331 341 
332 337 
332 340 
332 342 
333 338 
333 340 
333 343 
334 337 
334 339 
334 344 
335 339 
335 340 
336 337 
336 338 
341 348 
341 349 
342 347 
342 350 
343 348 
343 350 
344 347 
344 349 
345 349 
345 350 
345 355 
346 347 
346 348 
346 356 
351 358 
351 359 
351 361 
352 357 
352 360 
352 362 
353 358 
353 360 
353 363 
354 357 
354 359 
354 364 
355 359 
355 360 
356 357 
356 358 
361 368 
361 369 
362 367 
362 370 
363 368 
363 370 
364 367 
364 369 
365 369 
365 370 
365 375 
366 367 
366 368 
366 376 
371 378 
371 379 
371 381 
372 377 
372 380 
372 382 
373 378 
373 380 
373 383 
374 377 
374 379 
374 384 
375 379 
375 380 
376 377 
376 378 
381 388 
381 389 
382 387 
382 390 
383 388 
383 390 
384 387 
384 389 
385 389 
385 390 
385 395 
386 387 
386 388 
386 396 
391 398 
391 399 
391 401 
392 397 
392 400 
392 402 
393 398 
393 400 
393 403 
394 397 
394 399 
394 404 
395 399 
395 400 
396 397 
396 398 
401 408 
401 409 
402 407 
402 410 
403 408 
403 410 
404 407 
404 409 
405 409 
405 410 
405 415 
406 407 
406 408 
406 416 
411 418 
411 419 
411 421 
412 417 
412 420 
412 422 
413 418 
413 420 
413 423 
414 417 
414 419 
414 424 
415 419 
415 420 
416 417 
416 418 
421 428 
421 429 
422 427 
422 430 
423 428 
423 430 
424 427 
424 429 
425 429 
425 430 
425 435 
426 427 
426 428 
426 436 
431 438 
431 439 
431 441 
432 437 
432 440 
432 442 
433 438 
433 440 
433 443 
434 437 
434 439 
434 444 
435 439 
435 440 
436 437 
436 438 
441 448 
441 449 
442 447 
442 450 
443 448 
443 450 
444 447 
444 449 
445 449 
445 450 
445 455 
446 447 
446 448 
446 456 
451 458 
451 459 
451 461 
452 457 
452 460 
452 462 
453 458 
453 460 
453 463 
454 457 
454 459 
454 464 
455 459 
455 460 
456 457 
456 458 
461 468 
461 469 
462 467 
462 470 
463 468 
463 470 
464 467 
464 469 
465 469 
465 470 
465 475 
466 467 
466 468 
466 476 
471 478 
471 479 
471 481 
472 477 
472 480 
472 482 
473 478 
473 480 
473 483 
474 477 
474 479 
474 484 
475 479 
475 480 
476 477 
476 478 
481 488 
481 489 
482 487 
482 490 
483 488 
483 490 
484 487 
484 489 
485 489 
485 490 
485 495 
486 487 
486 488 
486 496 
491 498 
491 499 
491 501 
492 497 
492 500 
492 502 
493 498 
493 500 
493 503 
494 497 
494 499 
494 504 
495 499 
495 500 
496 497 
496 498 
501 508 
501 509 
502 507 
502 510 
503 508 
503 510 
504 507 
504 509 
505 509 
505 510 
505 515 
506 507 
506 508 
506 516 
511 518 
511 519 
511 521 
512 517 
512 520 
512 522 
513 518 
513 520 
513 523 
514 517 
514 519 
514 524 
515 519 
515 520 
516 517 
516 518 
521 528 
521 529 
522 527 
522 530 
523 528 
523 530 
524 527 
524 529 
525 529 
525 530 
525 535 
526 527 
526 528 
526 536 
531 538 
531 539 
531 541 
532 537 
532 540 
532 542 
533 538 
533 540 
533 543 
534 537 
534 539 
534 544 
535 539 
535 540 
536 537 
536 538 
541 548 
541 549 
542 547 
542 550 
543 548 
543 550 
544 547 
544 549 
545 549 
545 550 
545 555 
546 547 
546 548 
546 556 
551 558 
551 559 
551 561 
552 557 
552 560 
552 562 
553 558 
553 560 
553 563 
554 557 
554 559 
554 564 
555 559 
555 560 
556 557 
556 558 
561 568 
561 569 
562 567 
562 570 
563 568 
563 570 
564 567 
564 569 
565 569 
565 570 
565 575 
566 567 
566 568 
566 576 
571 578 
571 579 
571 581 
572 577 
572 580 
572 582 
573 578 
573 580 
573 583 
574 577 
574 579 
574 584 
575 579 
575 580 
576 577 
576 578 
581 588 
581 589 
582 587 
582 590 
583 588 
583 590 
584 587 
584 589 
585 589 
585 590 
585 595 
586 587 
586 588 
586 596 
591 598 
591 599 
591 601 
592 597 
592 600 
592 602 
593 598 
593 600 
593 603 
594 597 
594 599 
594 604 
595 599 
595 600 
596 597 
596 598 
601 608 
601 609 
602 607 
602 610 
603 608 
603 610 
604 607 
604 609 
605 609 
605 610 
605 615 
606 607 
606 608 
606 616 
611 618 
611 619 
611 621 
612 617 
612 620 
612 622 
613 618 
613 620 
613 623 
614 617 
614 619 
614 624 
615 619 
615 620 
616 617 
616 618 
621 628 
621 629 
622 627 
622 630 
623 628 
623 630 
624 627 
624 629 
625 629 
625 630 
625 635 
626 627 
626 628 
626 636 
631 638 
631 639 
631 641 
632 637 
632 640 
632 642 
633 638 
633 640 
633 643 
634 637 
634 639 
634 644 
635 639 
635 640 
636 637 
636 638 
641 648 
641 649 
642 647 
642 650 
643 648 
643 650 
644 647 
644 649 
645 649 
645 650 
645 655 
646 647 
646 648 
646 656 
651 658 
651 659 
651 661 
652 657 
652 660 
652 662 
653 658 
653 660 
653 663 
654 657 
654 659 
654 664 
655 659 
655 660 
656 657 
656 658 
661 668 
661 669 
662 667 
662 670 
663 668 
663 670 
664 667 
664 669 
665 669 
665 670 
665 675 
666 667 
666 668 
666 676 
671 673 
671 678 
671 679 
672 674 
672 677 
672 680 
673 678 
673 680 
674 677 
674 679 
675 679 
675 680 
676 677 
676 678 
